
Gurobi 9.5.0 (linux64) logging started Thu Dec  7 22:26:12 2023

Set parameter LogFile to value "/lustre1/scratch/348/vsc34888/JointResearch/05.Models/06.Benchmarking/B.Operation_cost/RTS24_mod1_ByStages_nc20/openStarNet_RTS24_mod1_ByStages_nc20.log"
Set parameter Method to value 2
Set parameter MIPFocus to value 1
Set parameter Presolve to value 2
Set parameter RINS to value 100
Set parameter MIPGap to value 0.01
Set parameter Threads to value 36
Set parameter TimeLimit to value 259200
Set parameter IterationLimit to value 760000000
Gurobi Optimizer version 9.5.0 build v9.5.0rc5 (linux64)
Thread count: 36 physical cores, 36 logical processors, using up to 36 threads
Optimize a model with 5683 rows, 3855 columns and 15488 nonzeros
Model fingerprint: 0x1e94f87c
Variable types: 3834 continuous, 21 integer (21 binary)
Coefficient statistics:
  Matrix range     [8e-03, 1e+03]
  Objective range  [1e+00, 1e+00]
  Bounds range     [1e-04, 2e+00]
  RHS range        [1e-04, 1e+00]
Presolve removed 3387 rows and 1951 columns
Presolve time: 0.02s
Presolved: 2296 rows, 1904 columns, 8291 nonzeros
Variable types: 1883 continuous, 21 integer (21 binary)
Found heuristic solution: objective 43.4864204
Root relaxation presolve removed 6 rows and 6 columns
Root relaxation presolved: 2290 rows, 1898 columns, 8279 nonzeros

Root barrier log...

Ordering time: 0.04s

Barrier statistics:
 AA' NZ     : 5.437e+04
 Factor NZ  : 2.495e+05 (roughly 4 MB of memory)
 Factor Ops : 4.337e+07 (less than 1 second per iteration)
 Threads    : 36

                  Objective                Residual
Iter       Primal          Dual         Primal    Dual     Compl     Time
   0   5.20224210e+05 -3.22255576e+07  4.97e+00 4.47e+02  1.65e+04     0s
   1   4.44602824e+04 -7.94383897e+06  4.82e-01 6.40e-11  2.04e+03     0s
   2   1.35271412e+04 -5.79998898e+06  1.28e-01 6.94e-11  1.20e+03     0s
   3   4.06752979e+03 -3.42481904e+05  1.37e-03 7.69e-11  6.48e+01     0s
   4   2.67591324e+03 -1.45835622e+04  3.62e-13 9.50e-12  3.22e+00     0s
   5   3.80385871e+02 -2.86889934e+03  1.99e-13 1.82e-12  6.05e-01     0s
   6   1.80537769e+02 -7.65384535e+02  1.07e-13 1.82e-12  1.76e-01     0s
   7   1.06567794e+02 -2.34013079e+02  6.84e-14 1.82e-12  6.34e-02     0s
   8   5.58309103e+01 -5.54821879e+01  1.22e-13 1.82e-12  2.07e-02     0s
   9   3.63113703e+01  6.90982368e+00  7.19e-14 3.64e-12  5.48e-03     0s
  10   2.86117564e+01  1.93537319e+01  4.57e-13 1.82e-12  1.72e-03     0s
  11   2.66615146e+01  2.14247168e+01  1.76e-12 1.82e-12  9.76e-04     0s
  12   2.55954563e+01  2.29042782e+01  7.60e-12 1.82e-12  5.01e-04     0s
  13   2.48932699e+01  2.43298571e+01  1.42e-11 1.82e-12  1.05e-04     0s
  14   2.45487225e+01  2.44321724e+01  1.84e-11 1.82e-12  2.17e-05     0s
  15   2.45181333e+01  2.44765077e+01  1.95e-11 3.64e-12  7.75e-06     0s
  16   2.44901256e+01  2.44844604e+01  8.33e-11 1.82e-12  1.06e-06     0s
  17   2.44862291e+01  2.44853535e+01  1.77e-10 5.46e-12  1.63e-07     0s
  18   2.44854195e+01  2.44854043e+01  2.68e-10 3.64e-12  2.82e-09     0s
  19   2.44854068e+01  2.44854068e+01  1.44e-10 3.64e-12  2.30e-12     0s

Barrier solved model in 19 iterations and 0.33 seconds (0.09 work units)
Optimal objective 2.44854068e+01


Root relaxation: objective 2.448541e+01, 342 iterations, 0.30 seconds (0.06 work units)

    Nodes    |    Current Node    |     Objective Bounds      |     Work
 Expl Unexpl |  Obj  Depth IntInf | Incumbent    BestBd   Gap | It/Node Time

     0     0   24.48541    0   12   43.48642   24.48541  43.7%     -    0s
     0     0   24.73387    0   11   43.48642   24.73387  43.1%     -    0s
H    0     0                      40.0930744   24.73387  38.3%     -    0s
     0     0   24.73387    0    9   40.09307   24.73387  38.3%     -    0s
H    0     0                      38.0509855   24.73387  35.0%     -    0s
     0     0   24.73387    0    9   38.05099   24.73387  35.0%     -    0s
     0     0   24.73387    0    9   38.05099   24.73387  35.0%     -    0s
     0     0   25.00982    0    9   38.05099   25.00982  34.3%     -    0s
     0     0   25.46915    0    9   38.05099   25.46915  33.1%     -    0s
     0     0   26.64240    0    9   38.05099   26.64240  30.0%     -    0s
     0     0   26.79866    0    8   38.05099   26.79866  29.6%     -    0s
H    0     0                      36.8696839   26.79866  27.3%     -    1s
     0     2   26.79866    0    8   36.86968   26.79866  27.3%     -    1s
H   92    75                      36.5654739   26.80445  26.7%  60.0    1s

Cutting planes:
  Gomory: 1
  MIR: 31
  Relax-and-lift: 12

Explored 902 nodes (33095 simplex iterations) in 2.14 seconds (1.64 work units)
Thread count was 36 (of 36 available processors)

Solution count 5: 36.5655 36.8697 38.051 ... 43.4864

Optimal solution found (tolerance 1.00e-02)
Best objective 3.656547390987e+01, best bound 3.656547390987e+01, gap 0.0000%

Gurobi 9.5.0 (linux64) logging started Thu Dec  7 22:26:15 2023

Set parameter LogFile to value "/lustre1/scratch/348/vsc34888/JointResearch/05.Models/06.Benchmarking/B.Operation_cost/RTS24_mod1_ByStages_nc20/openStarNet_RTS24_mod1_ByStages_nc20.log"
Set parameter Method to value 2
Set parameter MIPFocus to value 1
Set parameter Presolve to value 2
Set parameter RINS to value 100
Set parameter MIPGap to value 0.01
Set parameter Threads to value 36
Set parameter TimeLimit to value 259200
Set parameter IterationLimit to value 760000000
No parameters matching 'relax_integrality' found
Gurobi Optimizer version 9.5.0 build v9.5.0rc5 (linux64)
Thread count: 36 physical cores, 36 logical processors, using up to 36 threads
Optimize a model with 5683 rows, 3834 columns and 14123 nonzeros
Model fingerprint: 0xb273456d
Coefficient statistics:
  Matrix range     [8e-03, 1e+03]
  Objective range  [1e+00, 1e+00]
  Bounds range     [1e-04, 2e+00]
  RHS range        [1e-04, 1e+01]
Presolve removed 4691 rows and 2115 columns
Presolve time: 0.01s
Presolved: 992 rows, 1751 columns, 4471 nonzeros

Ordering time: 0.00s

Barrier statistics:
 AA' NZ     : 2.640e+03
 Factor NZ  : 8.400e+03 (roughly 1 MB of memory)
 Factor Ops : 1.102e+05 (less than 1 second per iteration)
 Threads    : 1

                  Objective                Residual
Iter       Primal          Dual         Primal    Dual     Compl     Time
   0   4.20685803e+05 -2.14311514e+06  4.62e+00 6.16e+02  3.64e+03     0s
   1   3.54311113e+04 -1.06983457e+06  3.59e-01 4.19e-12  5.17e+02     0s
   2   7.31794782e+03 -1.45749943e+05  2.52e-03 4.58e-12  5.15e+01     0s
   3   1.26454550e+03 -5.94862786e+03  1.55e-14 2.20e-12  2.41e+00     0s
   4   2.38999848e+02 -6.13476230e+02  1.37e-14 1.82e-12  2.85e-01     0s
   5   9.70368076e+01 -1.37692239e+02  4.55e-15 1.36e-12  7.85e-02     0s
   6   5.91376647e+01 -1.80897877e+01  1.03e-14 9.09e-13  2.58e-02     0s
   7   4.11532417e+01  2.88099609e+01  7.77e-15 9.09e-13  4.13e-03     0s
   8   3.71138669e+01  3.61553647e+01  9.93e-14 9.09e-13  3.21e-04     0s
   9   3.65829318e+01  3.65435289e+01  1.78e-12 9.09e-13  1.32e-05     0s
  10   3.65655560e+01  3.65651910e+01  1.22e-13 1.82e-12  1.22e-07     0s
  11   3.65654739e+01  3.65654738e+01  2.65e-12 1.82e-12  2.57e-11     0s
  12   3.65654739e+01  3.65654739e+01  1.34e-13 1.36e-12  3.87e-17     0s

Barrier solved model in 12 iterations and 0.02 seconds (0.02 work units)
Optimal objective 3.65654739e+01

Crossover log...

     205 DPushes remaining with DInf 0.0000000e+00                 0s

      69 PPushes remaining with PInf 0.0000000e+00                 0s
       0 PPushes remaining with PInf 0.0000000e+00                 0s

  Push phase complete: Pinf 0.0000000e+00, Dinf 3.3666125e-13      0s

Iteration    Objective       Primal Inf.    Dual Inf.      Time
      72    3.6565474e+01   0.000000e+00   0.000000e+00      0s

Use crossover to convert LP symmetric solution to basic solution...
Crossover log...

      56 PPushes remaining with PInf 0.0000000e+00                 0s
       0 PPushes remaining with PInf 0.0000000e+00                 0s

  Push phase complete: Pinf 0.0000000e+00, Dinf 3.7607764e-13      0s

Iteration    Objective       Primal Inf.    Dual Inf.      Time
     131    3.6565474e+01   0.000000e+00   0.000000e+00      0s

Solved in 131 iterations and 0.03 seconds (0.02 work units)
Optimal objective  3.656547391e+01

Gurobi 10.0.0 (win64) logging started Sat Dec  9 11:09:30 2023

Set parameter LogFile to value "C:\Users\ealvarezq\Documents\GitHub\Comillas\Models\JointResearch\05. Models\06.Benchmarking\B.Operation_cost\RTS24_mod1_ByStages_nc20/openStarNet_RTS24_mod1_ByStages_nc20.log"
Set parameter Method to value 2
Set parameter MIPFocus to value 1
Set parameter Presolve to value 2
Set parameter RINS to value 100
Set parameter MIPGap to value 0.01
Set parameter Threads to value 9
Set parameter TimeLimit to value 259200
Set parameter IterationLimit to value 760000000
Gurobi Optimizer version 10.0.0 build v10.0.0rc2 (win64)

CPU model: Intel(R) Core(TM) i7-8700 CPU @ 3.20GHz, instruction set [SSE2|AVX|AVX2]
Thread count: 6 physical cores, 12 logical processors, using up to 9 threads

Optimize a model with 8524 rows, 5781 columns and 23251 nonzeros
Model fingerprint: 0xafcee31a
Variable types: 5760 continuous, 21 integer (21 binary)
Coefficient statistics:
  Matrix range     [4e-03, 1e+03]
  Objective range  [1e+00, 1e+00]
  Bounds range     [2e-04, 2e+00]
  RHS range        [2e-04, 2e+00]
Presolve removed 5080 rows and 2925 columns
Presolve time: 0.03s
Presolved: 3444 rows, 2856 columns, 12447 nonzeros
Variable types: 2835 continuous, 21 integer (21 binary)
Found heuristic solution: objective 130.2485261
Root relaxation presolve removed 5 rows and 5 columns
Root relaxation presolved: 3439 rows, 2851 columns, 12437 nonzeros

Root barrier log...

Ordering time: 0.06s

Barrier statistics:
 AA' NZ     : 1.138e+05
 Factor NZ  : 5.463e+05 (roughly 7 MB of memory)
 Factor Ops : 1.387e+08 (less than 1 second per iteration)
 Threads    : 9

                  Objective                Residual
Iter       Primal          Dual         Primal    Dual     Compl     Time
   0   3.91826491e+06 -5.70030574e+07  2.24e+01 5.82e+02  6.00e+04     0s
   1   1.24923816e+06 -3.11293165e+07  7.11e+00 4.29e+01  1.76e+04     0s
   2   9.73942104e+04 -1.71649628e+07  5.75e-01 4.23e+00  3.00e+03     0s
   3   3.65607382e+04 -2.69295670e+06  1.83e-01 7.15e-11  4.43e+02     0s
   4   1.36630608e+04 -3.01898563e+05  2.06e-03 7.20e-11  3.94e+01     0s
   5   4.86911885e+03 -5.79867066e+04  5.18e-13 2.55e-11  7.80e+00     0s
   6   7.31562444e+02 -2.11898534e+03  5.30e-13 1.82e-12  3.54e-01     0s
   7   4.19651001e+02 -8.44592855e+02  2.07e-13 1.38e-12  1.57e-01     0s
   8   2.23565515e+02 -2.55014337e+02  2.21e-13 1.59e-12  5.94e-02     0s
   9   1.03781181e+02 -2.18822858e+01  2.24e-13 2.16e-12  1.56e-02     0s
  10   7.95783984e+01  1.64579229e+01  3.26e-13 2.41e-12  7.83e-03     0s
  11   6.89602260e+01  4.77869622e+01  2.89e-13 4.99e-12  2.63e-03     0s
  12   6.56195047e+01  5.53156861e+01  4.38e-13 1.91e-12  1.28e-03     0s
  13   6.28890255e+01  5.97499987e+01  1.61e-12 1.75e-12  3.90e-04     0s
  14   6.17289839e+01  6.08647805e+01  2.69e-12 2.42e-12  1.07e-04     0s
  15   6.15244521e+01  6.12561241e+01  8.51e-12 2.40e-12  3.33e-05     0s
  16   6.14397738e+01  6.13468452e+01  3.81e-11 2.76e-12  1.15e-05     0s
  17   6.14039423e+01  6.13839494e+01  1.92e-11 5.55e-12  2.48e-06     0s
  18   6.13912325e+01  6.13890108e+01  6.40e-10 5.95e-12  2.76e-07     0s
  19   6.13903875e+01  6.13899678e+01  1.10e-10 4.10e-12  5.21e-08     0s
  20   6.13902065e+01  6.13902038e+01  4.19e-11 2.34e-12  3.33e-10     0s
  21   6.13902051e+01  6.13902051e+01  1.45e-11 2.96e-12  6.78e-13     0s

Barrier solved model in 21 iterations and 0.25 seconds (0.19 work units)
Optimal objective 6.13902051e+01


Root relaxation: objective 6.139021e+01, 536 iterations, 0.20 seconds (0.13 work units)

    Nodes    |    Current Node    |     Objective Bounds      |     Work
 Expl Unexpl |  Obj  Depth IntInf | Incumbent    BestBd   Gap | It/Node Time

     0     0   61.39021    0   15  130.24853   61.39021  52.9%     -    0s
     0     0   62.65326    0   14  130.24853   62.65326  51.9%     -    0s
H    0     0                     125.5211689   62.65326  50.1%     -    0s
H    0     0                     118.9138518   62.89875  47.1%     -    0s
H    0     0                     114.7014204   62.89875  45.2%     -    0s
     0     0   64.77105    0   14  114.70142   64.77105  43.5%     -    0s
     0     0   65.17488    0   14  114.70142   65.17488  43.2%     -    0s
     0     0   65.33893    0   13  114.70142   65.33893  43.0%     -    0s
H    0     0                     106.6751872   65.33893  38.7%     -    0s
     0     0   65.33893    0   13  106.67519   65.33893  38.7%     -    0s
     0     0   65.33893    0   13  106.67519   65.33893  38.7%     -    0s
H    0     0                     100.0812750   65.33893  34.7%     -    0s
     0     0   65.96573    0   15  100.08128   65.96573  34.1%     -    0s
     0     0   66.29083    0   14  100.08128   66.29083  33.8%     -    0s
     0     0   66.32384    0   12  100.08128   66.32384  33.7%     -    0s
     0     0   66.32384    0   14  100.08128   66.32384  33.7%     -    0s
     0     0   66.58522    0   15  100.08128   66.58522  33.5%     -    0s
     0     0   66.60016    0   11  100.08128   66.60016  33.5%     -    0s
     0     0   66.60016    0   11  100.08128   66.60016  33.5%     -    0s
     0     0   67.94075    0   11  100.08128   67.94075  32.1%     -    0s
H    0     0                      89.6335439   67.94075  24.2%     -    2s
     0     2   67.94075    0   11   89.63354   67.94075  24.2%     -    2s
H   96    80                      87.1943489   68.08044  21.9%   147    3s
   497   209   77.96812    7   13   87.19435   70.10660  19.6%   104    6s
H  522   209                      87.1525082   70.10660  19.6%   103    6s
H  627   217                      87.1008563   70.81966  18.7%  99.0    7s
  1091   300     cutoff   14        87.10086   75.63383  13.2%  90.2   10s
H 1594   365                      87.0017631   78.94057  9.27%  82.7   11s
  2734   459     cutoff   12        87.00176   81.60943  6.20%  74.3   15s
  3894   370     cutoff   16        87.00176   83.68309  3.81%  68.0   21s
  4500   137   84.79901   13    8   87.00176   84.69723  2.65%  64.8   25s

Cutting planes:
  Gomory: 2
  Implied bound: 20
  MIR: 113
  Relax-and-lift: 9

Explored 5054 nodes (310088 simplex iterations) in 26.34 seconds (32.40 work units)
Thread count was 9 (of 12 available processors)

Solution count 10: 87.0018 87.1009 87.1525 ... 125.521

Optimal solution found (tolerance 1.00e-02)
Best objective 8.700176309410e+01, best bound 8.700176309410e+01, gap 0.0000%

Gurobi 10.0.0 (win64) logging started Sat Dec  9 11:09:57 2023

Set parameter LogFile to value "C:\Users\ealvarezq\Documents\GitHub\Comillas\Models\JointResearch\05. Models\06.Benchmarking\B.Operation_cost\RTS24_mod1_ByStages_nc20/openStarNet_RTS24_mod1_ByStages_nc20.log"
Set parameter Method to value 2
Set parameter MIPFocus to value 1
Set parameter Presolve to value 2
Set parameter RINS to value 100
Set parameter MIPGap to value 0.01
Set parameter Threads to value 9
Set parameter TimeLimit to value 259200
Set parameter IterationLimit to value 760000000
No parameters matching 'relax_integrality' found
Gurobi Optimizer version 10.0.0 build v10.0.0rc2 (win64)

CPU model: Intel(R) Core(TM) i7-8700 CPU @ 3.20GHz, instruction set [SSE2|AVX|AVX2]
Thread count: 6 physical cores, 12 logical processors, using up to 9 threads

Optimize a model with 8524 rows, 5760 columns and 21214 nonzeros
Model fingerprint: 0x58003cf6
Coefficient statistics:
  Matrix range     [4e-03, 1e+03]
  Objective range  [1e+00, 1e+00]
  Bounds range     [2e-04, 2e+00]
  RHS range        [2e-04, 3e+01]
Presolve removed 7228 rows and 3340 columns
Presolve time: 0.01s
Presolved: 1296 rows, 2444 columns, 5876 nonzeros

Ordering time: 0.00s

Barrier statistics:
 AA' NZ     : 3.216e+03
 Factor NZ  : 1.152e+04 (roughly 1 MB of memory)
 Factor Ops : 1.510e+05 (less than 1 second per iteration)
 Threads    : 1

                  Objective                Residual
Iter       Primal          Dual         Primal    Dual     Compl     Time
   0   6.70311171e+06 -2.22445891e+07  2.05e+01 4.61e+03  1.14e+05     0s
   1   4.18299532e+05 -1.83023611e+07  1.25e+00 3.64e-11  1.04e+04     0s
   2   7.20307173e+04 -5.30411074e+06  2.44e-01 1.02e-10  1.88e+03     0s
   3   3.22663528e+04 -1.84210360e+06  4.82e-02 2.91e-11  5.07e+02     0s
   4   1.94652312e+04 -2.83896937e+05  1.14e-03 2.55e-11  7.23e+01     0s
   5   8.90615734e+03 -4.50554017e+04  5.72e-11 1.32e-11  1.28e+01     0s
   6   1.50989719e+03 -5.85126175e+03  2.10e-11 8.41e-12  1.75e+00     0s
   7   4.12453487e+02 -1.08764965e+03  9.05e-12 8.95e-12  3.56e-01     0s
   8   2.15503380e+02 -1.71311768e+02  5.22e-12 7.96e-12  9.17e-02     0s
   9   1.21276515e+02 -3.61879756e+01  8.23e-12 5.18e-12  3.73e-02     0s
  10   1.01739950e+02  3.10213624e+01  9.93e-12 7.18e-12  1.68e-02     0s
  11   9.31571551e+01  7.29171069e+01  1.54e-11 6.49e-12  4.80e-03     0s
  12   8.77085405e+01  8.20409802e+01  2.53e-11 4.92e-12  1.34e-03     0s
  13   8.70608295e+01  8.64978185e+01  9.91e-11 4.77e-12  1.34e-04     0s
  14   8.70037439e+01  8.69766089e+01  2.27e-11 9.11e-12  6.44e-06     0s
  15   8.70018507e+01  8.70014715e+01  3.46e-11 8.91e-12  9.00e-08     0s
  16   8.70017631e+01  8.70017631e+01  4.31e-11 1.05e-11  1.74e-12     0s
  17   8.70017631e+01  8.70017631e+01  1.04e-12 1.46e-11  5.52e-17     0s

Barrier solved model in 17 iterations and 0.02 seconds (0.03 work units)
Optimal objective 8.70017631e+01

Crossover log...

     306 DPushes remaining with DInf 0.0000000e+00                 0s

     107 PPushes remaining with PInf 0.0000000e+00                 0s
       0 PPushes remaining with PInf 0.0000000e+00                 0s

  Push phase complete: Pinf 0.0000000e+00, Dinf 5.8534257e-13      0s

Iteration    Objective       Primal Inf.    Dual Inf.      Time
     110    8.7001763e+01   0.000000e+00   0.000000e+00      0s

Use crossover to convert LP symmetric solution to basic solution...
Crossover log...

      90 PPushes remaining with PInf 0.0000000e+00                 0s
       0 PPushes remaining with PInf 0.0000000e+00                 0s

  Push phase complete: Pinf 0.0000000e+00, Dinf 8.9422018e-13      0s

Iteration    Objective       Primal Inf.    Dual Inf.      Time
     203    8.7001763e+01   0.000000e+00   0.000000e+00      0s

Solved in 203 iterations and 0.04 seconds (0.03 work units)
Optimal objective  8.700176309e+01

Gurobi 9.5.0 (linux64) logging started Sat Dec 16 21:22:34 2023

Set parameter LogFile to value "/lustre1/scratch/348/vsc34888/JointResearch/05.Models/06.Benchmarking/B.Operation_cost/RTS24_mod1_ByStages_nc20/openStarNet_RTS24_mod1_ByStages_nc20.log"
Set parameter Method to value 2
Set parameter MIPFocus to value 1
Set parameter Presolve to value 2
Set parameter RINS to value 100
Set parameter MIPGap to value 0.01
Set parameter Threads to value 36
Set parameter TimeLimit to value 259200
Set parameter IterationLimit to value 760000000
Gurobi Optimizer version 9.5.0 build v9.5.0rc5 (linux64)
Thread count: 36 physical cores, 36 logical processors, using up to 36 threads
Optimize a model with 9943 rows, 6731 columns and 27097 nonzeros
Model fingerprint: 0xe6e94f47
Variable types: 6710 continuous, 21 integer (21 binary)
Coefficient statistics:
  Matrix range     [2e-02, 2e+03]
  Objective range  [1e+00, 1e+00]
  Bounds range     [1e-04, 2e+00]
  RHS range        [1e-04, 2e+00]
Presolve removed 5924 rows and 3404 columns
Presolve time: 0.03s
Presolved: 4019 rows, 3327 columns, 14520 nonzeros
Variable types: 3306 continuous, 21 integer (21 binary)
Found heuristic solution: objective 132.3245345
Root relaxation presolve removed 8 rows and 8 columns
Root relaxation presolved: 4011 rows, 3319 columns, 14504 nonzeros

Root barrier log...

Ordering time: 0.00s

Barrier statistics:
 Dense cols : 21
 AA' NZ     : 2.695e+04
 Factor NZ  : 7.720e+04 (roughly 4 MB of memory)
 Factor Ops : 1.582e+06 (less than 1 second per iteration)
 Threads    : 36

                  Objective                Residual
Iter       Primal          Dual         Primal    Dual     Compl     Time
   0   5.13310547e+06 -6.79901885e+07  2.24e+01 7.60e+02  6.28e+04     0s
   1   1.65619493e+06 -3.79821744e+07  7.20e+00 6.39e+01  1.86e+04     0s
   2   1.11196137e+05 -2.20486718e+07  5.04e-01 1.10e+01  3.16e+03     0s
   3   3.28332294e+04 -3.13994827e+06  1.01e-01 6.30e-10  3.96e+02     0s
   4   1.63636761e+04 -1.98290994e+05  1.64e-03 7.22e-11  2.30e+01     0s
   5   5.29628975e+03 -3.38606983e+04  2.06e-05 1.45e-10  4.17e+00     0s
   6   8.35708213e+02 -5.07426885e+03  3.84e-07 2.46e-11  6.29e-01     0s
   7   4.48474375e+02 -1.16612061e+03  5.33e-08 5.69e-12  1.72e-01     0s
   8   2.58837964e+02 -3.08023927e+02  2.54e-08 7.28e-12  6.04e-02     0s
   9   1.48291954e+02 -9.53630500e+01  9.75e-09 3.64e-12  2.59e-02     0s
  10   8.54893575e+01  1.18191120e+01  2.64e-09 3.64e-12  7.85e-03     0s
  11   6.47493425e+01  4.47392803e+01  7.48e-10 3.64e-12  2.13e-03     0s
  12   6.08069200e+01  5.07213512e+01  4.22e-10 3.64e-12  1.07e-03     0s
  13   5.86192501e+01  5.31052388e+01  2.38e-10 7.28e-12  5.87e-04     0s
  14   5.76482641e+01  5.43562663e+01  1.48e-10 3.64e-12  3.51e-04     0s
  15   5.67914894e+01  5.51290700e+01  6.88e-11 3.64e-12  1.77e-04     0s
  16   5.61704680e+01  5.53638764e+01  1.81e-11 3.64e-12  8.59e-05     0s
  17   5.60546926e+01  5.56701645e+01  8.77e-12 3.64e-12  4.10e-05     0s
  18   5.60276774e+01  5.59841533e+01  1.67e-11 3.64e-12  4.64e-06     0s
  19   5.60213277e+01  5.60158407e+01  3.53e-10 7.28e-12  5.84e-07     0s
  20   5.60201136e+01  5.60190160e+01  1.77e-10 3.64e-12  1.17e-07     0s
  21   5.60198182e+01  5.60194734e+01  1.38e-10 3.64e-12  3.67e-08     0s
  22   5.60196693e+01  5.60196428e+01  2.15e-10 3.64e-12  2.82e-09     0s
  23   5.60196678e+01  5.60196678e+01  1.71e-10 7.28e-12  6.30e-12     0s

Barrier solved model in 23 iterations and 0.19 seconds (0.13 work units)
Optimal objective 5.60196678e+01


Root relaxation: objective 5.601967e+01, 576 iterations, 0.14 seconds (0.06 work units)

    Nodes    |    Current Node    |     Objective Bounds      |     Work
 Expl Unexpl |  Obj  Depth IntInf | Incumbent    BestBd   Gap | It/Node Time

     0     0   56.01967    0   15  132.32453   56.01967  57.7%     -    0s
     0     0   57.97426    0   14  132.32453   57.97426  56.2%     -    0s
H    0     0                     126.8700323   57.97426  54.3%     -    0s
H    0     0                     111.5865613   58.09489  47.9%     -    0s
     0     0   58.09489    0   17  111.58656   58.09489  47.9%     -    0s
     0     0   58.09489    0   17  111.58656   58.09489  47.9%     -    0s
     0     0   60.45865    0   16  111.58656   60.45865  45.8%     -    0s
     0     0   61.08733    0   17  111.58656   61.08733  45.3%     -    0s
     0     0   61.08733    0   17  111.58656   61.08733  45.3%     -    0s
     0     0   61.08733    0   16  111.58656   61.08733  45.3%     -    0s
     0     0   61.08733    0   16  111.58656   61.08733  45.3%     -    0s
     0     0   61.08733    0   16  111.58656   61.08733  45.3%     -    0s
     0     0   61.08733    0   16  111.58656   61.08733  45.3%     -    0s
     0     0   61.27886    0   16  111.58656   61.27886  45.1%     -    0s
     0     0   61.61978    0   16  111.58656   61.61978  44.8%     -    0s
H    0     0                     106.1769367   61.61978  42.0%     -    0s
     0     0   61.79111    0   16  106.17694   61.79111  41.8%     -    0s
H    0     0                      82.3212647   61.79111  24.9%     -    5s
     0     2   61.79111    0   16   82.32126   61.79111  24.9%     -    5s
H  103   129                      81.1136937   65.11949  19.7%   159    7s
H  108   129                      80.5402177   65.11949  19.1%   158    7s
H 1122   258                      80.3975213   66.45136  17.3%   104    8s
  1599   302     cutoff   12        80.39752   66.45136  17.3%  94.4   13s
  1694   289     cutoff   12        80.39752   68.30856  15.0%  94.1   16s
  3500    29     cutoff   10        80.39752   75.50987  6.08%  75.5   20s

Cutting planes:
  Gomory: 3
  Implied bound: 56
  MIR: 132
  Relax-and-lift: 19

Explored 3639 nodes (271303 simplex iterations) in 20.90 seconds (24.43 work units)
Thread count was 36 (of 36 available processors)

Solution count 8: 80.3975 80.5402 81.1137 ... 132.325

Optimal solution found (tolerance 1.00e-02)
Best objective 8.039752128156e+01, best bound 8.039752128156e+01, gap 0.0000%

Gurobi 9.5.0 (linux64) logging started Sat Dec 16 21:22:55 2023

Set parameter LogFile to value "/lustre1/scratch/348/vsc34888/JointResearch/05.Models/06.Benchmarking/B.Operation_cost/RTS24_mod1_ByStages_nc20/openStarNet_RTS24_mod1_ByStages_nc20.log"
Set parameter Method to value 2
Set parameter MIPFocus to value 1
Set parameter Presolve to value 2
Set parameter RINS to value 100
Set parameter MIPGap to value 0.01
Set parameter Threads to value 36
Set parameter TimeLimit to value 259200
Set parameter IterationLimit to value 760000000
No parameters matching 'relax_integrality' found
Gurobi Optimizer version 9.5.0 build v9.5.0rc5 (linux64)
Thread count: 36 physical cores, 36 logical processors, using up to 36 threads
Optimize a model with 9943 rows, 6710 columns and 24724 nonzeros
Model fingerprint: 0xa4ae73a3
Coefficient statistics:
  Matrix range     [2e-02, 2e+03]
  Objective range  [1e+00, 1e+00]
  Bounds range     [1e-04, 2e+00]
  RHS range        [1e-04, 3e+01]
Presolve removed 8288 rows and 3744 columns
Presolve time: 0.01s
Presolved: 1655 rows, 2994 columns, 7437 nonzeros

Ordering time: 0.00s

Barrier statistics:
 AA' NZ     : 4.228e+03
 Factor NZ  : 1.361e+04 (roughly 2 MB of memory)
 Factor Ops : 1.726e+05 (less than 1 second per iteration)
 Threads    : 1

                  Objective                Residual
Iter       Primal          Dual         Primal    Dual     Compl     Time
   0   6.12872358e+06 -4.20888983e+07  1.34e+01 3.19e+03  1.24e+05     0s
   1   4.04330156e+05 -3.23307259e+07  8.43e-01 5.66e+01  1.28e+04     0s
   2   1.35066917e+05 -1.17397965e+07  2.88e-01 8.09e-11  3.58e+03     0s
   3   5.51892195e+04 -3.16732257e+06  5.99e-02 8.00e-11  7.59e+02     0s
   4   3.07517798e+04 -2.64273600e+05  2.74e-04 5.82e-11  5.93e+01     0s
   5   1.15286776e+04 -5.55759047e+04  6.36e-06 5.49e-11  1.35e+01     0s
   6   2.14670411e+03 -6.74432042e+03  5.40e-07 1.46e-11  1.78e+00     0s
   7   5.26471394e+02 -1.20172982e+03  7.73e-10 2.91e-11  3.47e-01     0s
   8   2.23341064e+02 -1.28670248e+02  6.86e-11 1.46e-11  7.07e-02     0s
   9   1.29164933e+02 -3.91316226e+00  1.88e-11 1.46e-11  2.67e-02     0s
  10   9.65458685e+01  4.37242589e+01  5.67e-12 7.28e-12  1.06e-02     0s
  11   8.72259144e+01  7.06571563e+01  1.04e-11 1.46e-11  3.33e-03     0s
  12   8.26490198e+01  7.56899879e+01  5.58e-12 1.46e-11  1.40e-03     0s
  13   8.08465446e+01  7.95918816e+01  7.53e-12 1.46e-11  2.52e-04     0s
  14   8.04070446e+01  8.03436026e+01  1.62e-11 1.46e-11  1.27e-05     0s
  15   8.03978218e+01  8.03916559e+01  3.72e-11 1.46e-11  1.24e-06     0s
  16   8.03975510e+01  8.03974673e+01  3.40e-11 1.46e-11  1.68e-08     0s
  17   8.03975213e+01  8.03975213e+01  4.84e-11 7.28e-12  2.42e-14     0s

Barrier solved model in 17 iterations and 0.03 seconds (0.03 work units)
Optimal objective 8.03975213e+01

Crossover log...

     361 DPushes remaining with DInf 0.0000000e+00                 0s
       0 DPushes remaining with DInf 0.0000000e+00                 0s

     109 PPushes remaining with PInf 0.0000000e+00                 0s
       0 PPushes remaining with PInf 0.0000000e+00                 0s

  Push phase complete: Pinf 0.0000000e+00, Dinf 5.0550218e-13      0s

Iteration    Objective       Primal Inf.    Dual Inf.      Time
     113    8.0397521e+01   0.000000e+00   0.000000e+00      0s

Use crossover to convert LP symmetric solution to basic solution...
Crossover log...

      93 PPushes remaining with PInf 0.0000000e+00                 0s
       0 PPushes remaining with PInf 0.0000000e+00                 0s

  Push phase complete: Pinf 0.0000000e+00, Dinf 4.2306667e-13      0s

Iteration    Objective       Primal Inf.    Dual Inf.      Time
     209    8.0397521e+01   0.000000e+00   0.000000e+00      0s

Solved in 209 iterations and 0.05 seconds (0.04 work units)
Optimal objective  8.039752128e+01

Gurobi 11.0.0 (linux64) logging started Fri Mar 22 14:17:42 2024

Set parameter LogFile to value "/lustre1/scratch/348/vsc34888/JointResearch/05.Models/06.Benchmarking/B.Operation_cost/RTS24_mod1_ByStages_nc20/openStarNet_RTS24_mod1_ByStages_nc20.log"
Set parameter Method to value 2
Set parameter MIPFocus to value 1
Set parameter Presolve to value 2
Set parameter RINS to value 100
Set parameter MIPGap to value 0.01
Set parameter Threads to value 36
Set parameter TimeLimit to value 259200
Set parameter IterationLimit to value 760000000
Gurobi Optimizer version 11.0.0 build v11.0.0rc2 (linux64 - "Rocky Linux 8.8 (Green Obsidian)")

CPU model: Intel(R) Xeon(R) Gold 6240 CPU @ 2.60GHz, instruction set [SSE2|AVX|AVX2|AVX512]
Thread count: 36 physical cores, 36 logical processors, using up to 36 threads

Optimize a model with 9943 rows, 6731 columns and 27097 nonzeros
Model fingerprint: 0x9bec04aa
Variable types: 6710 continuous, 21 integer (21 binary)
Coefficient statistics:
  Matrix range     [2e-02, 2e+03]
  Objective range  [1e+00, 1e+00]
  Bounds range     [1e-04, 2e+00]
  RHS range        [1e-04, 2e+00]
Presolve removed 5924 rows and 3404 columns
Presolve time: 0.04s
Presolved: 4019 rows, 3327 columns, 14520 nonzeros
Variable types: 3306 continuous, 21 integer (21 binary)
Found heuristic solution: objective 132.3245345
Root relaxation presolve removed 8 rows and 8 columns
Root relaxation presolved: 4011 rows, 3319 columns, 14504 nonzeros

Root barrier log...

Ordering time: 0.00s

Barrier statistics:
 Dense cols : 21
 AA' NZ     : 2.695e+04
 Factor NZ  : 7.720e+04 (roughly 4 MB of memory)
 Factor Ops : 1.582e+06 (less than 1 second per iteration)
 Threads    : 36

                  Objective                Residual
Iter       Primal          Dual         Primal    Dual     Compl     Time
   0   3.85082417e+06 -6.85578902e+07  1.68e+01 7.52e+02  4.93e+04     0s
   1   1.13082413e+06 -3.36499820e+07  4.93e+00 2.82e-09  1.31e+04     0s
   2   9.43895067e+04 -2.36089574e+07  4.31e-01 1.81e-09  3.22e+03     0s
   3   2.74999105e+04 -2.93137138e+06  6.69e-02 4.14e-10  3.52e+02     0s
   4   1.56209176e+04 -1.70904134e+05  1.53e-03 2.18e-11  2.00e+01     0s
   5   4.87961312e+03 -2.74780083e+04  1.45e-04 8.87e-11  3.45e+00     0s
   6   7.50664224e+02 -4.90834609e+03  2.79e-06 1.96e-11  6.03e-01     0s
   7   3.60958041e+02 -1.10334962e+03  1.05e-07 7.28e-12  1.56e-01     0s
   8   2.08815171e+02 -3.15586836e+02  4.83e-08 3.64e-12  5.58e-02     0s
   9   1.13065325e+02 -7.12887555e+01  1.44e-08 3.64e-12  1.96e-02     0s
  10   7.25443614e+01  2.63318053e+01  3.59e-09 7.28e-12  4.92e-03     0s
  11   6.38923940e+01  4.89890223e+01  1.73e-09 3.64e-12  1.59e-03     0s
  12   5.97661906e+01  5.21257941e+01  8.57e-10 3.64e-12  8.14e-04     0s
  13   5.86032028e+01  5.35061914e+01  6.02e-10 1.82e-12  5.43e-04     0s
  14   5.74491468e+01  5.46422779e+01  3.45e-10 1.82e-12  2.99e-04     0s
  15   5.66012216e+01  5.54847783e+01  1.25e-10 3.64e-12  1.19e-04     0s
  16   5.61580937e+01  5.58249894e+01  8.06e-11 3.64e-12  3.55e-05     0s
  17   5.60443173e+01  5.59961613e+01  4.09e-11 3.64e-12  5.13e-06     0s
  18   5.60214591e+01  5.60183124e+01  8.15e-10 7.28e-12  3.35e-07     0s
  19   5.60199674e+01  5.60192787e+01  9.74e-11 3.64e-12  7.34e-08     0s
  20   5.60196799e+01  5.60195885e+01  3.92e-11 3.64e-12  9.73e-09     0s
  21   5.60196683e+01  5.60196662e+01  4.85e-10 4.37e-10  2.22e-10     0s
  22   5.60196678e+01  5.60196678e+01  7.20e-10 7.28e-12  1.45e-14     0s

Barrier solved model in 22 iterations and 0.20 seconds (0.13 work units)
Optimal objective 5.60196678e+01


Root relaxation: objective 5.601967e+01, 575 iterations, 0.15 seconds (0.06 work units)

    Nodes    |    Current Node    |     Objective Bounds      |     Work
 Expl Unexpl |  Obj  Depth IntInf | Incumbent    BestBd   Gap | It/Node Time

     0     0   56.01967    0   15  132.32453   56.01967  57.7%     -    0s
     0     0   57.87759    0   15  132.32453   57.87759  56.3%     -    0s
H    0     0                     126.8700323   57.87759  54.4%     -    0s
H    0     0                     111.5865613   58.01049  48.0%     -    0s
     0     0   58.02978    0   15  111.58656   58.02978  48.0%     -    0s
     0     0   58.02978    0   15  111.58656   58.02978  48.0%     -    0s
     0     0   60.42390    0   15  111.58656   60.42390  45.9%     -    0s
     0     0   60.42390    0   15  111.58656   60.42390  45.9%     -    0s
     0     0   61.08733    0   18  111.58656   61.08733  45.3%     -    0s
H    0     0                     101.2252540   61.08733  39.7%     -    0s
     0     0   61.36486    0   17  101.22525   61.36486  39.4%     -    0s
     0     0   62.22095    0   13  101.22525   62.22095  38.5%     -    0s
H    0     0                     100.0218662   62.22095  37.8%     -    0s
     0     0   62.22095    0   14  100.02187   62.22095  37.8%     -    0s
     0     0   62.28396    0   14  100.02187   62.28396  37.7%     -    0s
     0     0   62.28396    0   14  100.02187   62.28396  37.7%     -    0s
     0     0   62.99497    0   13  100.02187   62.99497  37.0%     -    0s
     0     0   63.17554    0   13  100.02187   63.17554  36.8%     -    0s
     0     0   63.17554    0   13  100.02187   63.17554  36.8%     -    0s
H    0     0                      97.7989046   63.17554  35.4%     -    0s
     0     0   63.70075    0   13   97.79890   63.70075  34.9%     -    1s
H    0     0                      82.3651790   63.70075  22.7%     -    4s
     0     2   63.70075    0   13   82.36518   63.70075  22.7%     -    4s
H   99   135                      82.3212647   64.53749  21.6%   177    5s
H  108   135                      80.9936311   64.65557  20.2%   178    5s
H  113   135                      80.9577444   64.65557  20.1%   177    5s
H  924   326                      80.7020369   65.42859  18.9%   122    6s
H 1099   336                      80.6707018   65.42859  18.9%   117    8s
H 1123   336                      80.4920648   65.42859  18.7%   117    8s
* 1512   345              21      80.3975213   66.20413  17.7%   106    8s
  2099   342   71.26643    9   12   80.39752   71.15992  11.5%  98.9   12s
  2695   311   79.94887   13    8   80.39752   72.83439  9.41%  93.2   17s

Cutting planes:
  Gomory: 4
  Implied bound: 27
  MIR: 167
  RLT: 1
  Relax-and-lift: 29

Explored 4058 nodes (319454 simplex iterations) in 17.64 seconds (22.50 work units)
Thread count was 36 (of 36 available processors)

Solution count 10: 80.3975 80.6707 80.702 ... 101.225

Optimal solution found (tolerance 1.00e-02)
Best objective 8.039752128156e+01, best bound 8.039752128156e+01, gap 0.0000%

Gurobi 11.0.0 (linux64) logging started Fri Mar 22 14:18:01 2024

Set parameter LogFile to value "/lustre1/scratch/348/vsc34888/JointResearch/05.Models/06.Benchmarking/B.Operation_cost/RTS24_mod1_ByStages_nc20/openStarNet_RTS24_mod1_ByStages_nc20.log"
Set parameter Method to value 2
Set parameter MIPFocus to value 1
Set parameter Presolve to value 2
Set parameter RINS to value 100
Set parameter MIPGap to value 0.01
Set parameter Threads to value 36
Set parameter TimeLimit to value 259200
Set parameter IterationLimit to value 760000000
Gurobi Optimizer version 11.0.0 build v11.0.0rc2 (linux64 - "Rocky Linux 8.8 (Green Obsidian)")

CPU model: Intel(R) Xeon(R) Gold 6240 CPU @ 2.60GHz, instruction set [SSE2|AVX|AVX2|AVX512]
Thread count: 36 physical cores, 36 logical processors, using up to 36 threads

Optimize a model with 9943 rows, 6710 columns and 24724 nonzeros
Model fingerprint: 0x8e772c46
Coefficient statistics:
  Matrix range     [2e-02, 2e+03]
  Objective range  [1e+00, 1e+00]
  Bounds range     [1e-04, 2e+00]
  RHS range        [1e-04, 3e+01]
Presolve removed 8278 rows and 3759 columns
Presolve time: 0.01s
Presolved: 1665 rows, 2992 columns, 7265 nonzeros

Ordering time: 0.00s

Barrier statistics:
 AA' NZ     : 3.973e+03
 Factor NZ  : 1.399e+04 (roughly 2 MB of memory)
 Factor Ops : 1.740e+05 (less than 1 second per iteration)
 Threads    : 1

                  Objective                Residual
Iter       Primal          Dual         Primal    Dual     Compl     Time
   0   6.51384731e+06 -2.73275357e+07  1.34e+01 3.14e+03  7.56e+04     0s
   1   3.88249444e+05 -2.11219020e+07  8.37e-01 3.96e-11  7.93e+03     0s
   2   1.20988975e+05 -8.02885497e+06  2.96e-01 6.65e-11  2.35e+03     0s
   3   4.60151210e+04 -2.10593135e+06  4.12e-02 7.28e-11  4.72e+02     0s
   4   2.63259324e+04 -2.51815148e+05  1.99e-05 4.37e-11  5.45e+01     0s
   5   9.23430442e+03 -5.44928631e+04  2.88e-07 2.91e-11  1.25e+01     0s
   6   1.41772889e+03 -4.99600485e+03  2.05e-08 2.91e-11  1.26e+00     0s
   7   4.99024861e+02 -1.23684519e+03  4.30e-11 2.91e-11  3.40e-01     0s
   8   2.41417576e+02 -1.98636730e+02  7.29e-12 7.28e-12  8.62e-02     0s
   9   1.48671698e+02 -8.55163899e+00  2.77e-12 1.46e-11  3.08e-02     0s
  10   1.11843069e+02  4.02422271e+01  3.17e-12 7.28e-12  1.40e-02     0s
  11   9.24468217e+01  7.18980350e+01  4.42e-12 1.46e-11  4.02e-03     0s
  12   8.51906321e+01  7.83733423e+01  5.53e-12 2.91e-11  1.34e-03     0s
  13   8.10462607e+01  8.01888616e+01  1.12e-10 2.91e-11  1.68e-04     0s
  14   8.04099839e+01  8.03634194e+01  6.11e-10 1.46e-11  9.12e-06     0s
  15   8.03977205e+01  8.03961011e+01  1.46e-09 1.46e-11  3.17e-07     0s
  16   8.03975220e+01  8.03975199e+01  4.69e-10 1.46e-11  4.12e-10     0s
  17   8.03975213e+01  8.03975213e+01  1.64e-10 2.91e-11  4.44e-16     0s

Barrier solved model in 17 iterations and 0.04 seconds (0.03 work units)
Optimal objective 8.03975213e+01

Crossover log...

     365 DPushes remaining with DInf 0.0000000e+00                 0s
       0 DPushes remaining with DInf 0.0000000e+00                 0s

     110 PPushes remaining with PInf 0.0000000e+00                 0s
       0 PPushes remaining with PInf 0.0000000e+00                 0s

  Push phase complete: Pinf 0.0000000e+00, Dinf 9.0261190e-13      0s

Iteration    Objective       Primal Inf.    Dual Inf.      Time
     118    8.0397521e+01   0.000000e+00   0.000000e+00      0s

Use crossover to convert LP symmetric solution to basic solution...
Crossover log...

       0 DPushes remaining with DInf 0.0000000e+00                 0s

      93 PPushes remaining with PInf 0.0000000e+00                 0s
       0 PPushes remaining with PInf 0.0000000e+00                 0s

  Push phase complete: Pinf 0.0000000e+00, Dinf 9.7211940e-13      0s

Iteration    Objective       Primal Inf.    Dual Inf.      Time
     219    8.0397521e+01   0.000000e+00   0.000000e+00      0s

Solved in 219 iterations and 0.06 seconds (0.04 work units)
Optimal objective  8.039752128e+01
